120
150
42
57
53
49
49
48
57
41
52
46
50
54
44
51
55
52
53
45
47
55
57
45
59
43
52
57
48
48
48
41
44
56
50
44
57
57
48
49
54
50
53
46
51
46
48
58
49
56
45
57
53
57
53
45
44
51
55
44
40
44
58
53
60
58
41
51
57
46
48
57
52
60
49
52
57
57
40
53
47
41
41
44
57
49
55
54
51
57
42
41
57
52
41
49
46
46
51
48
51
47
59
44
45
60
55
46
50
51
49
49
49
51
50
45
56
45
57
42
51
49
